COLUMNS

passenger_count
pickup_ID
dropoff_ID
request_time_sec
pickup_district
dropoff_district
LDuals
IDuals
vehicle_ID
pick_position
drop_position

REQUESTS_INFO
2      1068      1010      30895     291       290       269       269       86        1         2         
3      504       416       30878     52        100       203       203       167       1         3         
2      618       250       30916     131       127       108       108       187       1         3         
2      951       946       30917     290       290       201       201       202       1         2         
2      499       599       30903     52        280       124       124       246       1         2         
1      397       553       30923     168       189       104       104       286       1         3         
4      1023      671       30774     291       280       373       373       331       1         2         
1      875       578       30905     291       189       245       245       345       1         2         
1      1148      1047      30838     291       291       216       216       431       1         2         
3      947       602       30907     290       189       197       197       439       1         2         
1      713       604       30911     131       189       156       156       442       1         2         
1      780       1088      30918     291       291       151       151       457       1         3         
2      914       794       30904     291       290       240       240       457       2         4         
1      924       897       30906     290       291       164       164       463       1         2         
3      958       662       30873     291       131       254       254       468       1         2         
1      1283      781       30871     192       291       167       167       490       1         3         
1      815       669       30889     290       280       183       183       494       1         2         
1      937       116       30921     291       9         174       174       538       1         4         
3      1002      619       30909     291       131       268       268       538       2         3         
1      925       533       30909     290       199       200       200       551       1         2         
1      1168      387       30843     291       299       187       187       559       1         4         
1      970       693       30864     290       280       228       228       572       1         3         
1      960       742       30870     291       290       247       247       592       1         3         
1      1156      756       30896     129       131       167       167       593       1         2         
2      923       915       30803     290       291       281       281       634       1         3         
1      1099      1099      30920     84        84        198       198       637       1         2         
1      939       600       30895     291       280       283       283       648       1         2         
1      714       862       30921     131       290       148       148       676       1         4         
3      745       949       30923     290       290       135       135       692       1         2         
1      984       883       30910     291       290       244       244       711       1         4         
1      793       649       30926     290       189       132       132       732       1         3         
1      894       431       30910     291       52        207       207       753       1         3         
1      1087      483       30823     291       189       285       285       767       1         4         
1      510       506       30922     199       189       101       101       830       1         2         
1      237       230       30911     87        266       125       125       873       1         3         
1      510       602       30927     199       189       96        96        961       1         3         
2      1024      675       30923     291       189       191       191       989       1         3         
3      860       133       30790     290       9         291       291       1034      1         2         
1      431       417       30908     52        100       174       174       1038      1         2         
1      850       840       30873     291       290       236       236       1049      1         3         
1      888       371       30825     290       52        238       238       1121      1         2         
1      888       1048      30876     290       291       187       187       1152      1         2         
1      768       906       30904     290       290       124       124       1158      1         3         
1      861       716       30912     290       189       166       166       1242      1         4         
2      1227      1032      30925     192       84        125       125       1246      1         2         
3      1021      651       30907     291       189       257       257       1283      1         3         
2      791       903       30831     290       290       213.5     213.5     1288      1         2         
3      1187      116       30803     291       9         273       273       1291      1         2         
2      913       650       30844     291       189       293       293       1295      1         2         
1      970       720       30911     290       290       163       163       1308      1         3         
1      852       717       30907     291       189       195       195       1311      1         2         
2      1021      651       30907     291       189       257       257       1328      1         2         
1      991       35        30914     290       98        136       136       1335      1         4         
1      827       847       30912     291       291       144       144       1338      1         2         
1      1172      970       30886     129       290       179       179       1340      1         3         
2      1129      371       30876     291       52        237       237       1353      1         2         
1      947       695       30782     290       189       294       294       1381      1         2         
1      522       697       30899     52        189       156       156       1383      1         3         
1      837       46        30927     290       98        120       120       1390      1         3         
3      1023      695       30912     291       189       230       230       1397      1         4         
1      980       698       30916     291       189       205       205       1397      2         3         
3      1002      619       30909     291       131       268       268       1428      1         2         
1      654       511       30913     189       199       109       109       1439      1         2         
1      992       1107      30917     290       291       189       189       1472      1         2         
1      748       925       30886     290       290       140       140       1474      1         2         
1      959       698       30853     291       189       303       303       1478      1         2         
1      349       430       30930     127       52        0         0         0         0         0         
3      292       10        30930     87        98        0         0         0         0         0         
1      766       46        30930     290       98        0         0         0         0         0         
1      694       639       30930     189       131       0         0         0         0         0         
1      578       81        30931     189       98        0         0         0         0         0         
1      859       713       30931     290       131       0         0         0         0         0         
3      366       483       30931     299       189       0         0         0         0         0         
2      366       483       30931     299       189       0         0         0         0         0         
3      510       529       30931     199       189       0         0         0         0         0         
3      510       529       30931     199       189       0         0         0         0         0         
1      556       305       30931     199       299       0         0         0         0         0         
4      1087      738       30932     291       189       0         0         0         0         0         
1      926       924       30932     290       290       0         0         0         0         0         
1      386       696       30932     299       189       0         0         0         0         0         
1      285       530       30932     299       189       0         0         0         0         0         
3      557       409       30933     189       52        0         0         0         0         0         
2      397       443       30933     168       168       0         0         0         0         0         
1      598       372       30933     189       119       0         0         0         0         0         
3      557       409       30933     189       52        0         0         0         0         0         
1      702       558       30934     290       189       0         0         0         0         0         
1      882       604       30934     290       189       0         0         0         0         0         
1      209       435       30934     266       52        0         0         0         0         0         
1      811       415       30934     290       100       0         0         0         0         0         
1      438       626       30934     100       189       0         0         0         0         0         
1      643       357       30937     131       277       0         0         0         0         0         
1      330       535       30937     127       189       0         0         0         0         0         
1      99        20        30937     286       98        0         0         0         0         0         
3      1149      544       30938     291       52        0         0         0         0         0         
1      330       409       30938     127       52        0         0         0         0         0         
2      702       20        30938     290       98        0         0         0         0         0         
1      397       292       30938     168       87        0         0         0         0         0         
3      668       650       30938     280       189       0         0         0         0         0         
2      668       650       30938     280       189       0         0         0         0         0         
2      1149      544       30938     291       52        0         0         0         0         0         
1      528       674       30939     52        189       0         0         0         0         0         
4      914       937       30939     291       291       0         0         0         0         0         
1      509       458       30939     199       52        0         0         0         0         0         
1      271       232       30939     127       266       0         0         0         0         0         
1      781       648       30939     291       189       0         0         0         0         0         
1      330       576       30939     127       189       0         0         0         0         0         
1      1000      1529      30940     291       296       0         0         0         0         0         
1      556       719       30940     199       189       0         0         0         0         0         
1      848       459       30940     291       189       0         0         0         0         0         
2      534       1149      30940     199       291       0         0         0         0         0         
2      304       676       30940     299       189       0         0         0         0         0         
1      608       817       30940     189       290       0         0         0         0         0         
1      688       693       30941     131       280       0         0         0         0         0         
1      802       648       30941     291       189       0         0         0         0         0         
1      228       213       30941     266       266       0         0         0         0         0         
1      699       631       30941     290       189       0         0         0         0         0         
1      743       483       30941     290       189       0         0         0         0         0         
1      871       742       30942     291       290       0         0         0         0         0         
1      745       1054      30942     290       84        0         0         0         0         0         
2      549       671       30942     52        280       0         0         0         0         0         
1      465       578       30942     199       189       0         0         0         0         0         
2      498       416       30943     52        100       0         0         0         0         0         
3      498       416       30943     52        100       0         0         0         0         0         
2      715       925       30943     131       290       0         0         0         0         0         
1      267       676       30943     266       189       0         0         0         0         0         
2      528       556       30943     52        199       0         0         0         0         0         
1      692       652       30943     280       189       0         0         0         0         0         
1      483       350       30943     189       127       0         0         0         0         0         
4      457       482       30943     52        189       0         0         0         0         0         
3      715       925       30943     131       290       0         0         0         0         0         
1      293       162       30943     87        178       0         0         0         0         0         
1      484       596       30944     189       131       0         0         0         0         0         
1      556       571       30944     199       52        0         0         0         0         0         
1      723       626       30944     290       189       0         0         0         0         0         
3      210       377       30944     266       168       0         0         0         0         0         
3      210       377       30944     266       168       0         0         0         0         0         
1      1000      748       30944     291       290       0         0         0         0         0         
2      287       377       30945     299       168       0         0         0         0         0         
2      304       46        30945     299       98        0         0         0         0         0         
3      304       46        30945     299       98        0         0         0         0         0         
1      99        210       30945     286       266       0         0         0         0         0         
1      285       408       30945     299       299       0         0         0         0         0         
1      415       605       30945     100       189       0         0         0         0         0         
2      693       31        30947     280       9         0         0         0         0         0         
1      991       744       30947     290       290       0         0         0         0         0         
1      745       628       30947     290       189       0         0         0         0         0         
1      946       433       30947     290       52        0         0         0         0         0         
1      488       10        30947     199       98        0         0         0         0         0         
2      738       581       30948     189       189       0         0         0         0         0         
1      648       691       30948     189       131       0         0         0         0         0         
3      738       581       30948     189       189       0         0         0         0         0         
1      598       439       30949     189       189       0         0         0         0         0         
1      607       46        30949     189       98        0         0         0         0         0         
1      824       760       30949     291       291       0         0         0         0         0         
3      1213      1227      30950     129       192       0         0         0         0         0         
1      745       628       30950     290       189       0         0         0         0         0         
1      386       272       30950     299       127       0         0         0         0         0         
1      280       884       30950     277       290       0         0         0         0         0         
2      1213      1227      30950     129       192       0         0         0         0         0         
1      191       21        30950     266       98        0         0         0         0         0         
1      374       502       30950     119       52        0         0         0         0         0         
1      772       600       30950     290       280       0         0         0         0         0         
2      332       238       30950     87        87        0         0         0         0         0         
1      328       718       30951     299       189       0         0         0         0         0         
1      759       671       30951     131       280       0         0         0         0         0         
1      304       671       30951     299       280       0         0         0         0         0         
1      331       185       30951     127       87        0         0         0         0         0         
4      603       650       30951     189       189       0         0         0         0         0         
1      412       549       30951     52        52        0         0         0         0         0         
1      969       745       30952     290       290       0         0         0         0         0         
1      250       651       30952     127       189       0         0         0         0         0         
1      559       483       30952     189       189       0         0         0         0         0         
1      938       291       30953     291       87        0         0         0         0         0         
1      554       116       30953     189       9         0         0         0         0         0         
1      701       602       30954     290       189       0         0         0         0         0         
1      884       971       30954     290       290       0         0         0         0         0         
1      696       504       30954     189       52        0         0         0         0         0         
1      81        458       30955     98        52        0         0         0         0         0         
3      550       694       30955     189       189       0         0         0         0         0         
3      550       694       30955     189       189       0         0         0         0         0         
4      457       373       30955     52        119       0         0         0         0         0         
1      862       578       30955     290       189       0         0         0         0         0         
2      721       923       30956     290       290       0         0         0         0         0         
3      721       923       30956     290       290       0         0         0         0         0         
1      531       79        30956     189       98        0         0         0         0         0         
1      152       522       30956     9         52        0         0         0         0         0         
2      694       780       30957     189       291       0         0         0         0         0         
3      694       780       30957     189       291       0         0         0         0         0         
2      452       628       30957     52        189       0         0         0         0         0         
4      702       721       30957     290       290       0         0         0         0         0         
1      522       208       30957     52        286       0         0         0         0         0         
1      795       862       30957     290       290       0         0         0         0         0         
1      950       748       30957     290       290       0         0         0         0         0         
1      504       771       30958     52        290       0         0         0         0         0         
2      527       767       30958     52        290       0         0         0         0         0         
1      374       581       30958     119       189       0         0         0         0         0         
1      549       624       30958     52        189       0         0         0         0         0         
1      528       603       30958     52        189       0         0         0         0         0         
1      939       690       30958     291       131       0         0         0         0         0         
1      398       350       30959     168       127       0         0         0         0         0         
2      291       238       30959     87        87        0         0         0         0         0         
1      935       724       30959     291       290       0         0         0         0         0         
3      487       288       30959     199       127       0         0         0         0         0         
